certificates/rado_a15_c229_N40.cnf
c Rad2 upper bound instance: x1 + 15*x2 - x3 = 229, interval [1,40]
p cnf 40 212
1 12 16 0
-1 -12 -16 0
1 17 27 0
-1 -17 -27 0
2 13 16 0
-2 -13 -16 0
2 17 28 0
-2 -17 -28 0
3 14 16 0
-3 -14 -16 0
3 17 29 0
-3 -17 -29 0
4 15 16 0
-4 -15 -16 0
4 17 30 0
-4 -17 -30 0
1 5 15 0
-1 -5 -15 0
5 16 0
-5 -16 0
5 17 31 0
-5 -17 -31 0
2 6 15 0
-2 -6 -15 0
6 16 17 0
-6 -16 -17 0
6 17 32 0
-6 -17 -32 0
3 7 15 0
-3 -7 -15 0
7 16 18 0
-7 -16 -18 0
7 17 33 0
-7 -17 -33 0
4 8 15 0
-4 -8 -15 0
8 16 19 0
-8 -16 -19 0
8 17 34 0
-8 -17 -34 0
5 9 15 0
-5 -9 -15 0
9 16 20 0
-9 -16 -20 0
9 17 35 0
-9 -17 -35 0
6 10 15 0
-6 -10 -15 0
10 16 21 0
-10 -16 -21 0
10 17 36 0
-10 -17 -36 0
7 11 15 0
-7 -11 -15 0
11 16 22 0
-11 -16 -22 0
11 17 37 0
-11 -17 -37 0
8 12 15 0
-8 -12 -15 0
12 16 23 0
-12 -16 -23 0
12 17 38 0
-12 -17 -38 0
9 13 15 0
-9 -13 -15 0
13 16 24 0
-13 -16 -24 0
13 17 39 0
-13 -17 -39 0
10 14 15 0
-10 -14 -15 0
14 16 25 0
-14 -16 -25 0
14 17 40 0
-14 -17 -40 0
11 15 0
-11 -15 0
15 16 26 0
-15 -16 -26 0
12 15 16 0
-12 -15 -16 0
16 27 0
-16 -27 0
13 15 17 0
-13 -15 -17 0
16 17 28 0
-16 -17 -28 0
14 15 18 0
-14 -15 -18 0
16 18 29 0
-16 -18 -29 0
15 19 0
-15 -19 0
16 19 30 0
-16 -19 -30 0
1 14 20 0
-1 -14 -20 0
15 16 20 0
-15 -16 -20 0
16 20 31 0
-16 -20 -31 0
2 14 21 0
-2 -14 -21 0
15 17 21 0
-15 -17 -21 0
16 21 32 0
-16 -21 -32 0
3 14 22 0
-3 -14 -22 0
15 18 22 0
-15 -18 -22 0
16 22 33 0
-16 -22 -33 0
4 14 23 0
-4 -14 -23 0
15 19 23 0
-15 -19 -23 0
16 23 34 0
-16 -23 -34 0
5 14 24 0
-5 -14 -24 0
15 20 24 0
-15 -20 -24 0
16 24 35 0
-16 -24 -35 0
6 14 25 0
-6 -14 -25 0
15 21 25 0
-15 -21 -25 0
16 25 36 0
-16 -25 -36 0
7 14 26 0
-7 -14 -26 0
15 22 26 0
-15 -22 -26 0
16 26 37 0
-16 -26 -37 0
8 14 27 0
-8 -14 -27 0
15 23 27 0
-15 -23 -27 0
16 27 38 0
-16 -27 -38 0
9 14 28 0
-9 -14 -28 0
15 24 28 0
-15 -24 -28 0
16 28 39 0
-16 -28 -39 0
10 14 29 0
-10 -14 -29 0
15 25 29 0
-15 -25 -29 0
16 29 40 0
-16 -29 -40 0
11 14 30 0
-11 -14 -30 0
15 26 30 0
-15 -26 -30 0
12 14 31 0
-12 -14 -31 0
15 27 31 0
-15 -27 -31 0
13 14 32 0
-13 -14 -32 0
15 28 32 0
-15 -28 -32 0
14 33 0
-14 -33 0
15 29 33 0
-15 -29 -33 0
14 15 34 0
-14 -15 -34 0
15 30 34 0
-15 -30 -34 0
1 13 35 0
-1 -13 -35 0
14 16 35 0
-14 -16 -35 0
15 31 35 0
-15 -31 -35 0
2 13 36 0
-2 -13 -36 0
14 17 36 0
-14 -17 -36 0
15 32 36 0
-15 -32 -36 0
3 13 37 0
-3 -13 -37 0
14 18 37 0
-14 -18 -37 0
15 33 37 0
-15 -33 -37 0
4 13 38 0
-4 -13 -38 0
14 19 38 0
-14 -19 -38 0
15 34 38 0
-15 -34 -38 0
5 13 39 0
-5 -13 -39 0
14 20 39 0
-14 -20 -39 0
15 35 39 0
-15 -35 -39 0
6 13 40 0
-6 -13 -40 0
14 21 40 0
-14 -21 -40 0
15 36 40 0
-15 -36 -40 0
