certificates/rado_a15_c229_N40.drat
-36 -37 -40 0
17 36 -38 0
-37 -38 -40 0
-17 -38 -40 0
-38 -40 0
d -37 -38 -40 0
-36 -39 -40 0
17 36 -40 0
-39 -40 0
d -36 -39 -40 0
36 -40 0
d 17 36 -40 0
-40 0
15 17 0
17 -36 0
10 14 0
d 10 29 14 0
-17 -36 0
d -10 -17 -36 0
-36 0
15 0
-11 0
-19 0
14 0
-33 0
-10 0
-18 0
-34 0
17 0
-21 0
-13 0
16 0
2 0
6 0
-5 0
-27 0
-3 0
-12 0
-28 0
0
